20160504 10 0 0 0
20150526 100 0 0 0
20140605 100 0 0 0
20130704 150 0 0 0
20120419 250 0 0 0
20110512 250 0 0 0
20100527 250 0 0 0
20090930 250 0 0 0
20090430 300 3000 0 0
20080912 300 0 0 0
20080428 0 10000 0 0
